data;
set V := 1 2 3 4 5 6 7 8 9;
set E :=
    (1,2)
    (1,3)
    (1,8)
    (1,9)
    (2,3)
    (2,4)
    (2,5)
    (2,7)
    (2,9)
    (3,4)
    (3,9)
    (4,6)
    (4,7)
    (5,6)
    (5,7)
    (5,8)
    (6,8)
    (7,8)
    (8,9)
;